p edge 44 479
e 1 3
e 1 6
e 1 7
e 1 8
e 1 10
e 1 11
e 1 12
e 1 17
e 1 18
e 1 19
e 1 21
e 1 24
e 1 25
e 1 27
e 1 28
e 1 29
e 1 30
e 1 31
e 1 32
e 1 33
e 1 35
e 1 37
e 1 38
e 1 39
e 1 43
e 2 5
e 2 6
e 2 9
e 2 10
e 2 11
e 2 12
e 2 14
e 2 15
e 2 17
e 2 18
e 2 19
e 2 22
e 2 23
e 2 26
e 2 27
e 2 29
e 2 33
e 2 34
e 2 37
e 2 43
e 2 44
e 3 4
e 3 5
e 3 7
e 3 8
e 3 11
e 3 13
e 3 15
e 3 17
e 3 18
e 3 19
e 3 20
e 3 21
e 3 22
e 3 27
e 3 28
e 3 29
e 3 30
e 3 34
e 3 38
e 3 44
e 4 6
e 4 7
e 4 8
e 4 9
e 4 10
e 4 11
e 4 12
e 4 19
e 4 20
e 4 21
e 4 22
e 4 24
e 4 25
e 4 31
e 4 33
e 4 34
e 4 35
e 4 36
e 4 38
e 4 43
e 5 6
e 5 7
e 5 8
e 5 9
e 5 13
e 5 14
e 5 15
e 5 16
e 5 18
e 5 19
e 5 20
e 5 21
e 5 25
e 5 28
e 5 32
e 5 34
e 5 40
e 5 41
e 5 42
e 5 43
e 5 44
e 6 12
e 6 15
e 6 18
e 6 20
e 6 21
e 6 22
e 6 24
e 6 26
e 6 29
e 6 30
e 6 31
e 6 32
e 6 33
e 6 35
e 6 36
e 6 40
e 6 41
e 6 44
e 7 8
e 7 13
e 7 15
e 7 16
e 7 17
e 7 22
e 7 23
e 7 25
e 7 27
e 7 28
e 7 30
e 7 32
e 7 33
e 7 35
e 7 38
e 7 39
e 7 40
e 7 41
e 7 43
e 7 44
e 8 10
e 8 11
e 8 13
e 8 17
e 8 18
e 8 21
e 8 22
e 8 23
e 8 26
e 8 28
e 8 29
e 8 30
e 8 31
e 8 33
e 8 36
e 8 38
e 8 39
e 8 42
e 8 43
e 8 44
e 9 12
e 9 13
e 9 14
e 9 15
e 9 20
e 9 21
e 9 23
e 9 25
e 9 27
e 9 28
e 9 29
e 9 30
e 9 31
e 9 34
e 9 35
e 9 36
e 9 37
e 9 38
e 9 40
e 9 41
e 9 44
e 10 11
e 10 16
e 10 17
e 10 20
e 10 21
e 10 22
e 10 23
e 10 24
e 10 25
e 10 26
e 10 27
e 10 29
e 10 32
e 10 33
e 10 34
e 10 37
e 10 40
e 10 41
e 10 44
e 11 12
e 11 14
e 11 17
e 11 18
e 11 23
e 11 24
e 11 25
e 11 27
e 11 29
e 11 30
e 11 31
e 11 33
e 11 37
e 11 39
e 11 42
e 11 44
e 12 13
e 12 14
e 12 16
e 12 17
e 12 18
e 12 19
e 12 20
e 12 27
e 12 28
e 12 29
e 12 30
e 12 33
e 12 37
e 12 38
e 12 40
e 12 42
e 12 44
e 13 14
e 13 17
e 13 18
e 13 19
e 13 21
e 13 22
e 13 23
e 13 26
e 13 27
e 13 29
e 13 30
e 13 31
e 13 32
e 13 34
e 13 35
e 13 36
e 13 37
e 13 39
e 13 42
e 13 43
e 14 18
e 14 19
e 14 20
e 14 21
e 14 25
e 14 31
e 14 33
e 14 35
e 14 36
e 14 37
e 14 38
e 14 43
e 14 44
e 15 16
e 15 18
e 15 19
e 15 21
e 15 23
e 15 24
e 15 28
e 15 29
e 15 35
e 15 37
e 15 38
e 15 39
e 15 40
e 15 42
e 15 43
e 16 19
e 16 22
e 16 23
e 16 24
e 16 25
e 16 26
e 16 28
e 16 29
e 16 31
e 16 32
e 16 37
e 16 38
e 16 40
e 16 42
e 16 43
e 17 21
e 17 22
e 17 28
e 17 29
e 17 30
e 17 34
e 17 35
e 17 36
e 17 38
e 17 39
e 17 40
e 17 41
e 17 42
e 17 43
e 17 44
e 18 20
e 18 21
e 18 22
e 18 25
e 18 26
e 18 27
e 18 28
e 18 32
e 18 33
e 18 34
e 18 35
e 18 41
e 18 43
e 19 22
e 19 25
e 19 26
e 19 29
e 19 30
e 19 31
e 19 33
e 19 34
e 19 35
e 19 38
e 19 40
e 19 41
e 19 42
e 19 44
e 20 21
e 20 27
e 20 29
e 20 30
e 20 31
e 20 32
e 20 34
e 20 36
e 20 38
e 20 42
e 21 25
e 21 26
e 21 28
e 21 32
e 21 33
e 21 36
e 21 37
e 21 38
e 21 40
e 21 41
e 21 42
e 21 44
e 22 25
e 22 26
e 22 30
e 22 31
e 22 35
e 22 39
e 22 40
e 22 42
e 23 25
e 23 26
e 23 27
e 23 28
e 23 30
e 23 36
e 23 39
e 23 40
e 23 41
e 23 42
e 23 43
e 24 27
e 24 29
e 24 32
e 24 34
e 24 36
e 24 37
e 24 38
e 24 39
e 24 40
e 24 41
e 24 43
e 24 44
e 25 29
e 25 30
e 25 31
e 25 32
e 25 34
e 25 36
e 25 40
e 25 42
e 25 43
e 25 44
e 26 27
e 26 29
e 26 30
e 26 35
e 26 36
e 26 38
e 26 39
e 26 40
e 26 43
e 26 44
e 27 31
e 27 35
e 27 36
e 27 37
e 27 38
e 27 40
e 27 41
e 27 44
e 28 31
e 28 33
e 28 35
e 28 36
e 28 38
e 28 43
e 28 44
e 29 30
e 29 31
e 29 32
e 29 34
e 29 36
e 29 39
e 29 41
e 29 42
e 30 36
e 30 41
e 30 42
e 30 43
e 31 33
e 31 34
e 31 36
e 31 42
e 32 33
e 32 34
e 32 35
e 32 42
e 32 43
e 32 44
e 33 34
e 33 36
e 33 37
e 33 40
e 33 42
e 34 37
e 34 39
e 34 42
e 35 42
e 36 37
e 36 38
e 36 40
e 36 43
e 37 38
e 37 39
e 37 42
e 38 41
e 38 43
e 38 44
e 39 40
e 39 41
e 40 41
e 40 44
e 41 42
e 41 43
e 42 44
